n=8;
hearts=4;
clubs=57;
spades=48;
diamonds=26;
blocked=20;
m=array2d(1..n, 1..n,[
	_,3,5,5,_,_,5,5,
	_,_,4,5,_,_,_,_,
	_,2,5,_,5,5,3,2,
	5,_,2,_,5,5,_,1,
	5,5,_,_,3,_,_,_,
	5,_,3,3,3,1,5,_,
	5,_,1,_,5,_,5,_,
	5,_,_,_,_,3,1,5
]);
